data/CVRPLIB/Vrp-Set-XML100/instances/XML100_1115_25.vrp
NAME : XML100_1115_25
COMMENT : Generated by Queiroga, Sadykov, Uchoa, and Vidal (2021)
TYPE : CVRP
DIMENSION : 101
EDGE_WEIGHT_TYPE : EUC_2D
CAPACITY : 20
NODE_COORD_SECTION
1    769  809 
2    570  340 
3    573  830 
4    874  301 
5    576  261 
6    290  578 
7    911  396 
8    580  252 
9    681  207 
10   757  229 
11   874  663 
12   36   596 
13   419  361 
14   754  243 
15   464  778 
16   122  253 
17   252  392 
18   165  837 
19   424  652 
20   180  936 
21   769  324 
22   425  926 
23   484  566 
24   673  348 
25   281  303 
26   88   353 
27   795  201 
28   67   78  
29   305  239 
30   426  936 
31   591  429 
32   505  826 
33   712  883 
34   879  965 
35   759  249 
36   4    605 
37   702  85  
38   468  245 
39   779  959 
40   438  128 
41   951  744 
42   333  359 
43   965  853 
44   621  710 
45   472  133 
46   613  224 
47   158  286 
48   906  571 
49   204  343 
50   149  7   
51   657  197 
52   988  254 
53   810  522 
54   165  539 
55   831  163 
56   676  718 
57   506  521 
58   882  125 
59   6    504 
60   837  64  
61   161  62  
62   279  594 
63   128  117 
64   381  223 
65   671  560 
66   839  814 
67   606  543 
68   5    668 
69   653  906 
70   317  116 
71   609  306 
72   686  942 
73   934  123 
74   403  180 
75   468  186 
76   70   644 
77   549  36  
78   660  537 
79   349  576 
80   992  554 
81   352  254 
82   387  148 
83   848  162 
84   467  367 
85   911  445 
86   419  870 
87   12   176 
88   635  573 
89   14   222 
90   481  762 
91   264  286 
92   495  232 
93   339  545 
94   278  0   
95   704  123 
96   144  100 
97   114  323 
98   474  268 
99   819  409 
100  71   400 
101  887  647 
DEMAND_SECTION
1    0   
2    1   
3    1   
4    1   
5    1   
6    1   
7    1   
8    1   
9    1   
10   1   
11   1   
12   1   
13   1   
14   1   
15   1   
16   1   
17   1   
18   1   
19   1   
20   1   
21   1   
22   1   
23   1   
24   1   
25   1   
26   1   
27   1   
28   1   
29   1   
30   1   
31   1   
32   1   
33   1   
34   1   
35   1   
36   1   
37   1   
38   1   
39   1   
40   1   
41   1   
42   1   
43   1   
44   1   
45   1   
46   1   
47   1   
48   1   
49   1   
50   1   
51   1   
52   1   
53   1   
54   1   
55   1   
56   1   
57   1   
58   1   
59   1   
60   1   
61   1   
62   1   
63   1   
64   1   
65   1   
66   1   
67   1   
68   1   
69   1   
70   1   
71   1   
72   1   
73   1   
74   1   
75   1   
76   1   
77   1   
78   1   
79   1   
80   1   
81   1   
82   1   
83   1   
84   1   
85   1   
86   1   
87   1   
88   1   
89   1   
90   1   
91   1   
92   1   
93   1   
94   1   
95   1   
96   1   
97   1   
98   1   
99   1   
100  1   
101  1   
DEPOT_SECTION
1
-1
EOF
