data/CVRPLIB/Vrp-Set-XML100/solutions/XML100_1115_25.sol
Route #1: 78 92 5 61 53 16 48 96 25 99 58 11 35 67 75 17 19 29 21 85
Route #2: 43 41 24 90 46 15 88 86 27 62 95 60 49 93 69 28 80 63 12 83
Route #3: 30 1 97 37 91 74 73 81 39 44 76 36 94 8 50 45 7 4 70 23
Route #4: 10 100 47 79 84 6 3 51 72 57 59 82 54 26 9 13 34 20 98 52
Route #5: 55 87 64 77 66 56 22 18 89 14 31 2 68 71 32 38 33 42 40 65
Cost 10794
